NAME : 10_3_3_1_(27).dat
COMMENT : Henke, Speranza, Wäscher, 2015
TYPE : MCVRP
DIMENSION : 11
EDGE_WEIGHT_TYPE : DISTANCE_MATRIX
CAPACITY : 1000
VEHICLES : 3
PRODUCT TYPES : 3
COMPARTMENTS : 3
NODE_COORD_SECTION
1 50 50
2 60.54 11.11
3 6.38 2.82
4 27.05 4.55
5 52.84 84.53
6 88.39 2.57
7 40.48 14.4
8 94.18 63.5
9 53.52 38.49
10 81.92 19.63
11 3.11 50.66
DEMAND_SECTION
1 0 0 0
2 249 0 0
3 0 224 0
4 121 0 0
5 0 74 0
6 376 0 0
7 0 0 224
8 70 0 0
9 51 0 0
10 0 222 0
11 0 0 122
DEPOT_SECTION
1
EOF